Solver command line: []

Read LP format model from file C:\Users\wlhlm\AppData\Local\Temp\tmp13chzolr.pyomo.lp
Reading time = 2.44 seconds
objective: 976704 rows, 875999 columns, 2211846 nonzeros
Set parameter MIPGap to value 0.02
Gurobi Optimizer version 12.0.1 build v12.0.1rc0 (win64 - Windows 11.0 (26100.2))

CPU model: Intel(R) Core(TM) Ultra 7 258V, instruction set [SSE2|AVX|AVX2]
Thread count: 8 physical cores, 8 logical processors, using up to 8 threads

Non-default parameters:
MIPGap  0.02

Optimize a model with 976704 rows, 875999 columns and 2211846 nonzeros
Model fingerprint: 0xec7485d9
Model has 8759 quadratic constraints
Variable types: 753360 continuous, 122639 integer (105120 binary)
Coefficient statistics:
  Matrix range     [8e-03, 2e+02]
  QMatrix range    [1e+00, 1e+00]
  Objective range  [1e-02, 5e+02]
  Bounds range     [1e+00, 3e+00]
  RHS range        [8e-05, 1e+04]
Presolve removed 775355 rows and 648357 columns
Presolve time: 0.56s
Presolved: 201349 rows, 227642 columns, 627463 nonzeros
Variable types: 153430 continuous, 74212 integer (65452 binary)
Performing another presolve...
Presolve removed 70173 rows and 70174 columns (presolve time = 7s)...
Presolve removed 70173 rows and 70174 columns
Presolve time: 7.30s
Deterministic concurrent LP optimizer: primal and dual simplex
Showing primal log only...


Root simplex log...

Iteration    Objective       Primal Inf.    Dual Inf.      Time
       0    1.0195929e+08   8.190495e+06   4.066142e+13      9s
   41626    9.9114147e+07   4.986544e+04   8.874838e+10     10s
Concurrent spin time: 0.00s

Solved with dual simplex

Root simplex log...

Iteration    Objective       Primal Inf.    Dual Inf.      Time
   69108    9.3907181e+07   0.000000e+00   0.000000e+00     12s

Root relaxation: objective 9.390718e+07, 69108 iterations, 3.56 seconds (3.91 work units)
Total elapsed time = 12.30s (DegenMoves)

    Nodes    |    Current Node    |     Objective Bounds      |     Work
 Expl Unexpl |  Obj  Depth IntInf | Incumbent    BestBd   Gap | It/Node Time

     0     0 9.3907e+07    0  275          - 9.3907e+07      -     -   14s
H    0     0                    9.392396e+07 9.3907e+07  0.02%     -   15s

Explored 1 nodes (74390 simplex iterations) in 15.22 seconds (18.18 work units)
Thread count was 8 (of 8 available processors)

Solution count 1: 9.3924e+07 

Optimal solution found (tolerance 2.00e-02)
Best objective 9.392396189256e+07, best bound 9.390718095757e+07, gap 0.0179%

